Co  O Li                                
   1.00000000000000     
     5.5910235607896803   -0.0137970787172582    0.0001640669343857
    -2.8100345129319448    4.8568169805319696    0.0001616550760620
     0.0047948511222178    0.0232400739308712   14.1857333957005363
   Co   O    Li
    12    24     6
Direct
  0.1841420860406368  0.3399515863800860  0.1662204344420406
  0.0244094397771231  0.0093688917079988  0.4970649317359317
  0.3573139231281047  0.1758368737568153  0.8365972632687836
  0.1841093242107648  0.8397167770255747  0.1661999568669404
  0.0241731377856483  0.5090266610093724  0.4967358972501212
  0.3572154444916962  0.6755977998482303  0.8366217862338632
  0.6839714975912498  0.3398459790504226  0.1662919463313639
  0.5258900627454909  0.0097051630463668  0.5031188008073064
  0.8557078279239757  0.1750744138152721  0.8299267081578713
  0.6839190509126002  0.8397130605053904  0.1662387968682759
  0.5260357672758429  0.5099783348075748  0.5034352074400978
  0.8556121152054278  0.6749347914113645  0.8298313174370587
  0.3451168914278683  0.1705108601299738  0.0975883939303265
  0.0227550284175901  0.0088522853575491  0.2350182659769997
  0.2034194033858970  0.3507584644905707  0.4284026072464696
  0.3520676032666075  0.1757297002439775  0.5714481811827905
  0.0378313585601819  0.0162895521470972  0.7615640824817256
  0.1832880764431401  0.3383848930201938  0.9047078431586961
  0.3452954288557619  0.6707814537366699  0.0975358542932052
  0.0227607311060656  0.5088620723416249  0.2348736566298305
  0.1984327641307437  0.8434828469132333  0.4285968631267197
  0.3469470861338973  0.6683061417986180  0.5715964338628913
  0.0381728807566540  0.5166773053848356  0.7616623850297614
  0.1833845311978539  0.8386180872401504  0.9046493100699802
  0.8570159768580230  0.1766133422586239  0.0955435142340793
  0.5113114686169716  0.0031917722005944  0.2368863297737114
  0.6841407389935903  0.3414529423090401  0.4327697809572795
  0.8694029517309408  0.1852095647212602  0.5671267053735662
  0.5118320983707485  0.0031799882174461  0.7656817278643117
  0.6941526550408490  0.3439016380917628  0.8998730333166324
  0.8570065942765712  0.6766273196384966  0.0955241999859842
  0.5109258184036178  0.5028052200449109  0.2367761524088658
  0.6809529192426904  0.8338961758582298  0.4330722557178864
  0.8659668284399507  0.6774695499632711  0.5674103966917087
  0.5115092302649740  0.5031203153943770  0.7657008942476156
  0.6941619288692513  0.8438355668125619  0.8998805230888526
 -0.0089388274600108 -0.0061779987309477 -0.0001527129326260
  0.3608021475248329  0.1743043187008823  0.3331396967793658
  0.1761628238786521  0.3332800214451576  0.6664973528197721
 -0.0090093234507561  0.4938546967572857 -0.0001378815194060
  0.3786257176271395  0.6887063953987913  0.3340324823023073
  0.1916663870258903  0.8461477823704324  0.6673931520186154
 
  0.00000000E+00  0.00000000E+00  0.00000000E+00
  0.00000000E+00  0.00000000E+00  0.00000000E+00
  0.00000000E+00  0.00000000E+00  0.00000000E+00
  0.00000000E+00  0.00000000E+00  0.00000000E+00
  0.00000000E+00  0.00000000E+00  0.00000000E+00
  0.00000000E+00  0.00000000E+00  0.00000000E+00
  0.00000000E+00  0.00000000E+00  0.00000000E+00
  0.00000000E+00  0.00000000E+00  0.00000000E+00
  0.00000000E+00  0.00000000E+00  0.00000000E+00
  0.00000000E+00  0.00000000E+00  0.00000000E+00
  0.00000000E+00  0.00000000E+00  0.00000000E+00
  0.00000000E+00  0.00000000E+00  0.00000000E+00
  0.00000000E+00  0.00000000E+00  0.00000000E+00
  0.00000000E+00  0.00000000E+00  0.00000000E+00
  0.00000000E+00  0.00000000E+00  0.00000000E+00
  0.00000000E+00  0.00000000E+00  0.00000000E+00
  0.00000000E+00  0.00000000E+00  0.00000000E+00
  0.00000000E+00  0.00000000E+00  0.00000000E+00
  0.00000000E+00  0.00000000E+00  0.00000000E+00
  0.00000000E+00  0.00000000E+00  0.00000000E+00
  0.00000000E+00  0.00000000E+00  0.00000000E+00
  0.00000000E+00  0.00000000E+00  0.00000000E+00
  0.00000000E+00  0.00000000E+00  0.00000000E+00
  0.00000000E+00  0.00000000E+00  0.00000000E+00
  0.00000000E+00  0.00000000E+00  0.00000000E+00
  0.00000000E+00  0.00000000E+00  0.00000000E+00
  0.00000000E+00  0.00000000E+00  0.00000000E+00
  0.00000000E+00  0.00000000E+00  0.00000000E+00
  0.00000000E+00  0.00000000E+00  0.00000000E+00
  0.00000000E+00  0.00000000E+00  0.00000000E+00
  0.00000000E+00  0.00000000E+00  0.00000000E+00
  0.00000000E+00  0.00000000E+00  0.00000000E+00
  0.00000000E+00  0.00000000E+00  0.00000000E+00
  0.00000000E+00  0.00000000E+00  0.00000000E+00
  0.00000000E+00  0.00000000E+00  0.00000000E+00
  0.00000000E+00  0.00000000E+00  0.00000000E+00
  0.00000000E+00  0.00000000E+00  0.00000000E+00
  0.00000000E+00  0.00000000E+00  0.00000000E+00
  0.00000000E+00  0.00000000E+00  0.00000000E+00
  0.00000000E+00  0.00000000E+00  0.00000000E+00
  0.00000000E+00  0.00000000E+00  0.00000000E+00
  0.00000000E+00  0.00000000E+00  0.00000000E+00
