Co  O Li                                
   1.00000000000000     
     5.5910235607896803   -0.0137970787172582    0.0001640669343857
    -2.8100345129319448    4.8568169805319696    0.0001616550760620
     0.0047948511222178    0.0232400739308712   14.1857333957005363
   Co   O    Li
    12    24     6
Direct
  0.1841420860406373  0.3399515863800886  0.1662204344420388
  0.0244094397771235  0.0093688917080001  0.4970649317359346
  0.3573139231281033  0.1758368737568148  0.8365972632687857
  0.1841093242107661  0.8397167770255720  0.1661999568669401
  0.0241731377856453  0.5090266610093721  0.4967358972501188
  0.3572154444916933  0.6755977998482336  0.8366217862338630
  0.6839714975912514  0.3398459790504234  0.1662919463313628
  0.5258900627454892  0.0097051630463696  0.5031188008073073
  0.8557078279239789  0.1750744138152740  0.8299267081578705
  0.6839190509125999  0.8397130605053889  0.1662387968682779
  0.5260357672758431  0.5099783348075775  0.5034352074400985
  0.8556121152054246  0.6749347914113670  0.8298313174370620
  0.3451168914278711  0.1705108601299727  0.0975883939303230
  0.0227550284175919  0.0088522853575483  0.2350182659769970
  0.2034194033858938  0.3507584644905677  0.4284026072464684
  0.3520676032666046  0.1757297002439770  0.5714481811827881
  0.0378313585601830  0.0162895521471000  0.7615640824817262
  0.1832880764431408  0.3383848930201907  0.9047078431586968
  0.3452954288557635  0.6707814537366730  0.0975358542932057
  0.0227607311060680  0.5088620723416284  0.2348736566298300
  0.1984327641307431  0.8434828469132327  0.4285968631267210
  0.3469470861338948  0.6683061417986167  0.5715964338628936
  0.0381728807566546  0.5166773053848388  0.7616623850297586
  0.1833845311978521  0.8386180872401496  0.9046493100699777
  0.8570159768580226  0.1766133422586265  0.0955435142340804
  0.5113114686169737  0.0031917722005943  0.2368863297737107
  0.6841407389935910  0.3414529423090400  0.4327697809572797
  0.8694029517309403  0.1852095647212622  0.5671267053735676
  0.5118320983707463  0.0031799882174468  0.7656817278643118
  0.6941526550408526  0.3439016380917650  0.8998730333166307
  0.8570065942765694  0.6766273196384986  0.0955241999859808
  0.5109258184036207  0.5028052200449125  0.2367761524088650
  0.6809529192426922  0.8338961758582286  0.4330722557178888
  0.8659668284399515  0.6774695499632699  0.5674103966917059
  0.5115092302649771  0.5031203153943764  0.7657008942476153
  0.6941619288692493  0.8438355668125652  0.8998805230888536
  0.9910611725399860  0.9938220012690522  0.9998472870673751
  0.3608021475248364  0.1743043187008837  0.3331396967793623
  0.1761628238786486  0.3332800214451552  0.6664973528197748
  0.9909906765492451  0.4938546967572890  0.9998621184805927
  0.3786257176271377  0.6887063953987891  0.3340324823023053
  0.1916663870258901  0.8461477823704300  0.6673931520186187
 
  0.00000000E+00  0.00000000E+00  0.00000000E+00
  0.00000000E+00  0.00000000E+00  0.00000000E+00
  0.00000000E+00  0.00000000E+00  0.00000000E+00
  0.00000000E+00  0.00000000E+00  0.00000000E+00
  0.00000000E+00  0.00000000E+00  0.00000000E+00
  0.00000000E+00  0.00000000E+00  0.00000000E+00
  0.00000000E+00  0.00000000E+00  0.00000000E+00
  0.00000000E+00  0.00000000E+00  0.00000000E+00
  0.00000000E+00  0.00000000E+00  0.00000000E+00
  0.00000000E+00  0.00000000E+00  0.00000000E+00
  0.00000000E+00  0.00000000E+00  0.00000000E+00
  0.00000000E+00  0.00000000E+00  0.00000000E+00
  0.00000000E+00  0.00000000E+00  0.00000000E+00
  0.00000000E+00  0.00000000E+00  0.00000000E+00
  0.00000000E+00  0.00000000E+00  0.00000000E+00
  0.00000000E+00  0.00000000E+00  0.00000000E+00
  0.00000000E+00  0.00000000E+00  0.00000000E+00
  0.00000000E+00  0.00000000E+00  0.00000000E+00
  0.00000000E+00  0.00000000E+00  0.00000000E+00
  0.00000000E+00  0.00000000E+00  0.00000000E+00
  0.00000000E+00  0.00000000E+00  0.00000000E+00
  0.00000000E+00  0.00000000E+00  0.00000000E+00
  0.00000000E+00  0.00000000E+00  0.00000000E+00
  0.00000000E+00  0.00000000E+00  0.00000000E+00
  0.00000000E+00  0.00000000E+00  0.00000000E+00
  0.00000000E+00  0.00000000E+00  0.00000000E+00
  0.00000000E+00  0.00000000E+00  0.00000000E+00
  0.00000000E+00  0.00000000E+00  0.00000000E+00
  0.00000000E+00  0.00000000E+00  0.00000000E+00
  0.00000000E+00  0.00000000E+00  0.00000000E+00
  0.00000000E+00  0.00000000E+00  0.00000000E+00
  0.00000000E+00  0.00000000E+00  0.00000000E+00
  0.00000000E+00  0.00000000E+00  0.00000000E+00
  0.00000000E+00  0.00000000E+00  0.00000000E+00
  0.00000000E+00  0.00000000E+00  0.00000000E+00
  0.00000000E+00  0.00000000E+00  0.00000000E+00
  0.00000000E+00  0.00000000E+00  0.00000000E+00
  0.00000000E+00  0.00000000E+00  0.00000000E+00
  0.00000000E+00  0.00000000E+00  0.00000000E+00
  0.00000000E+00  0.00000000E+00  0.00000000E+00
  0.00000000E+00  0.00000000E+00  0.00000000E+00
  0.00000000E+00  0.00000000E+00  0.00000000E+00
